p ocr 80 20 80
1 87
2 96
3 94
4 98
5 84
6 83
7 84
8 99
9 93
10 97
11 83
12 87
13 91
14 91
15 86
16 84
17 99
18 98
19 92
20 90
21 93
22 93
23 83
24 90
25 82
26 96
27 97
28 85
29 90
30 81
31 98
32 86
33 82
34 88
35 91
36 82
37 85
38 88
39 95
40 85
41 89
42 100
43 96
44 92
45 99
46 94
47 83
48 92
49 97
50 86
51 99
52 89
53 87
54 97
55 81
56 81
57 82
58 95
59 86
60 84
61 90
62 87
63 98
64 94
65 96
66 92
67 88
68 100
69 85
70 95
71 89
72 89
73 91
74 93
75 88
76 100
77 100
78 81
79 95
80 94
